NAME : A-n45-k6.648670.tour
COMMENT : Length = 648670
COMMENT : Found by LKH [Keld Helsgaun] Sun Dec 17 18:38:18 2017
TYPE : TOUR
DIMENSION : 50
TOUR_SECTION
1
29
8
27
28
35
12
41
20
31
50
10
23
17
5
43
37
40
13
48
33
21
4
11
9
42
34
22
6
49
24
2
45
7
25
38
46
30
44
19
18
14
47
15
36
32
39
3
26
16
-1
EOF
